c FILE: i080-215

c SOURCE: From steinlib

c DESCRIPTION: Steinlib instance with 80 nodes and 350 edges.

p edge 80 350
e 1 11
e 1 23
e 1 26
e 1 34
e 1 44
e 1 45
e 1 53
e 1 64
e 1 69
e 2 5
e 2 8
e 2 35
e 2 36
e 2 41
e 2 51
e 2 52
e 2 54
e 2 72
e 3 15
e 3 18
e 3 23
e 3 31
e 3 36
e 3 40
e 3 62
e 3 64
e 3 69
e 4 18
e 4 25
e 4 32
e 4 34
e 4 43
e 4 65
e 4 73
e 5 13
e 5 30
e 5 42
e 5 46
e 5 47
e 5 48
e 5 63
e 5 78
e 6 8
e 6 9
e 6 29
e 6 31
e 6 34
e 6 46
e 6 76
e 6 78
e 6 79
e 7 8
e 7 24
e 7 29
e 7 39
e 7 41
e 7 43
e 7 68
e 8 23
e 8 25
e 8 37
e 8 41
e 8 46
e 8 65
e 9 10
e 9 36
e 9 41
e 9 42
e 9 53
e 9 63
e 9 66
e 9 68
e 9 69
e 9 73
e 9 74
e 10 14
e 10 19
e 10 34
e 10 45
e 10 58
e 10 63
e 10 64
e 10 70
e 11 13
e 11 26
e 11 31
e 11 34
e 11 42
e 11 46
e 11 66
e 11 71
e 11 74
e 11 75
e 11 79
e 12 17
e 12 22
e 12 33
e 12 41
e 12 45
e 12 52
e 12 60
e 12 68
e 13 16
e 13 19
e 13 22
e 13 31
e 13 36
e 13 37
e 13 38
e 13 48
e 13 56
e 13 69
e 14 15
e 14 23
e 14 28
e 14 33
e 14 35
e 14 70
e 14 75
e 15 29
e 15 41
e 15 44
e 15 64
e 15 74
e 15 78
e 16 22
e 16 39
e 16 43
e 16 55
e 17 25
e 17 27
e 17 37
e 17 43
e 17 59
e 17 70
e 18 31
e 18 34
e 18 37
e 18 39
e 18 43
e 18 48
e 18 51
e 18 60
e 18 73
e 19 44
e 19 58
e 19 71
e 19 74
e 20 23
e 20 25
e 20 26
e 20 35
e 20 41
e 20 61
e 20 75
e 20 76
e 21 30
e 21 34
e 21 46
e 21 63
e 21 68
e 21 72
e 22 56
e 22 70
e 22 74
e 22 77
e 22 78
e 23 26
e 23 61
e 23 78
e 24 49
e 24 63
e 24 65
e 24 72
e 24 76
e 25 29
e 25 38
e 25 40
e 25 53
e 25 54
e 25 75
e 26 31
e 26 40
e 26 48
e 26 57
e 26 66
e 27 29
e 27 40
e 27 41
e 27 52
e 27 55
e 27 62
e 27 69
e 27 70
e 27 75
e 27 79
e 28 30
e 28 42
e 28 63
e 28 68
e 28 71
e 28 72
e 29 46
e 29 67
e 29 72
e 30 31
e 30 39
e 30 40
e 30 48
e 30 56
e 30 66
e 31 36
e 31 37
e 31 48
e 31 80
e 32 42
e 32 47
e 32 49
e 32 59
e 32 61
e 32 76
e 33 37
e 33 42
e 33 55
e 33 68
e 33 70
e 33 79
e 34 51
e 34 55
e 34 71
e 35 48
e 35 52
e 35 58
e 35 70
e 35 72
e 36 40
e 36 54
e 36 67
e 36 72
e 36 75
e 36 76
e 37 39
e 37 46
e 37 49
e 37 72
e 38 43
e 38 49
e 38 52
e 38 59
e 38 61
e 38 72
e 39 41
e 39 51
e 39 62
e 39 63
e 39 66
e 39 71
e 39 75
e 40 41
e 40 52
e 40 65
e 40 67
e 41 49
e 41 52
e 41 53
e 41 54
e 41 59
e 41 67
e 41 69
e 42 48
e 42 54
e 43 45
e 43 50
e 43 52
e 43 53
e 43 71
e 43 78
e 44 51
e 44 55
e 44 66
e 44 70
e 44 73
e 45 49
e 45 58
e 45 62
e 45 74
e 45 79
e 46 60
e 47 50
e 47 60
e 47 62
e 48 60
e 48 74
e 48 77
e 49 52
e 49 64
e 50 67
e 51 54
e 52 57
e 52 62
e 52 63
e 52 71
e 52 75
e 52 80
e 53 67
e 53 68
e 53 75
e 54 57
e 54 59
e 54 79
e 55 61
e 55 65
e 55 67
e 56 63
e 56 66
e 57 60
e 57 79
e 58 60
e 59 64
e 59 66
e 59 68
e 60 61
e 60 71
e 60 80
e 62 69
e 62 70
e 62 71
e 62 72
e 62 80
e 63 70
e 64 70
e 64 72
e 64 80
e 65 67
e 65 73
e 66 67
e 66 72
e 66 74
e 66 79
e 67 78
e 68 72
e 68 80
e 69 73
e 70 77
e 72 78
e 73 74
e 74 78
e 76 78
e 77 80
e 78 80
